% Auto-generated by scripts/generate_dzn.py
% problem_type   = regex
% instance       = regex_27
% source_json    = instances_json/1_medium_blowup/regex_27.json
% blowup         = 2.1739130434782608
% representation = DFA

mode = 0;

var_count = 19;
n_constraints = 2;
Q = 34;
S = 3;
q0 = [1, 1];
F = [{22, 23, 24, 25, 26, 27, 28, 29, 30, 31, 32, 33, 34}, {15}];
weights = [8, 1, 9, 5, 8, 4, 1, 3, 1, 5, 2, 8, 4, 1, 10, 4, 10, 8, 6];
d_dfa = array3d(1..2, 1..34, 1..3, [
  % k = 1
    1, 1, 2,
    1, 3, 2,
    4, 4, 5,
    6, 6, 7,
    6, 8, 7,
    9, 9, 10,
    9, 11, 10,
    12, 12, 13,
    14, 14, 15,
    14, 16, 15,
    17, 17, 18,
    19, 19, 20,
    19, 21, 20,
    22, 22, 23,
    22, 24, 23,
    25, 25, 26,
    27, 27, 28,
    27, 29, 28,
    30, 30, 31,
    30, 32, 31,
    33, 33, 34,
    1, 1, 2,
    1, 3, 2,
    4, 4, 5,
    6, 6, 7,
    6, 8, 7,
    9, 9, 10,
    9, 11, 10,
    12, 12, 13,
    14, 14, 15,
    14, 16, 15,
    17, 17, 18,
    19, 19, 20,
    19, 21, 20,

  % k = 2
    1, 1, 2,
    2, 2, 3,
    3, 3, 4,
    4, 4, 5,
    5, 5, 6,
    6, 6, 7,
    7, 7, 8,
    8, 8, 9,
    9, 9, 10,
    10, 10, 11,
    11, 11, 12,
    12, 12, 13,
    13, 13, 14,
    14, 14, 15,
    15, 15, 16,
    16, 16, 16,
    0, 0, 0,
    0, 0, 0,
    0, 0, 0,
    0, 0, 0,
    0, 0, 0,
    0, 0, 0,
    0, 0, 0,
    0, 0, 0,
    0, 0, 0,
    0, 0, 0,
    0, 0, 0,
    0, 0, 0,
    0, 0, 0,
    0, 0, 0,
    0, 0, 0,
    0, 0, 0,
    0, 0, 0,
    0, 0, 0
]);
d_nfa = array3d(1..2, 1..34, 1..3, [
  % k = 1
    {}, {}, {},
    {}, {}, {},
    {}, {}, {},
    {}, {}, {},
    {}, {}, {},
    {}, {}, {},
    {}, {}, {},
    {}, {}, {},
    {}, {}, {},
    {}, {}, {},
    {}, {}, {},
    {}, {}, {},
    {}, {}, {},
    {}, {}, {},
    {}, {}, {},
    {}, {}, {},
    {}, {}, {},
    {}, {}, {},
    {}, {}, {},
    {}, {}, {},
    {}, {}, {},
    {}, {}, {},
    {}, {}, {},
    {}, {}, {},
    {}, {}, {},
    {}, {}, {},
    {}, {}, {},
    {}, {}, {},
    {}, {}, {},
    {}, {}, {},
    {}, {}, {},
    {}, {}, {},
    {}, {}, {},
    {}, {}, {},

  % k = 2
    {}, {}, {},
    {}, {}, {},
    {}, {}, {},
    {}, {}, {},
    {}, {}, {},
    {}, {}, {},
    {}, {}, {},
    {}, {}, {},
    {}, {}, {},
    {}, {}, {},
    {}, {}, {},
    {}, {}, {},
    {}, {}, {},
    {}, {}, {},
    {}, {}, {},
    {}, {}, {},
    {}, {}, {},
    {}, {}, {},
    {}, {}, {},
    {}, {}, {},
    {}, {}, {},
    {}, {}, {},
    {}, {}, {},
    {}, {}, {},
    {}, {}, {},
    {}, {}, {},
    {}, {}, {},
    {}, {}, {},
    {}, {}, {},
    {}, {}, {},
    {}, {}, {},
    {}, {}, {},
    {}, {}, {},
    {}, {}, {}
]);
